c Command line: hgen8 175 50
p cnf 175 271
78 110 123 6 0
34 159 101 31 0
121 8 105 76 0
120 88 166 43 0
69 135 155 142 0
138 1 107 83 0
55 151 63 97 0
24 165 89 145 0
172 45 134 104 0
16 96 85 130 0
137 51 74 152 0
35 3 119 5 0
106 17 132 126 0
44 140 157 131 0
115 114 127 141 0
173 48 60 164 0
139 154 75 19 0
149 170 38 108 0
66 36 174 68 0
26 112 18 171 0
168 67 163 98 0
84 146 162 42 0
148 122 95 87 0
10 129 37 117 0
64 13 62 77 0
103 100 41 125 0
11 111 72 175 0
59 20 61 56 0
15 2 53 4 0
133 46 23 92 0
70 29 21 39 0
40 71 91 147 0
109 33 113 90 0
81 79 28 58 0
9 128 143 12 0
80 169 160 161 0
-1 -2 0
-1 -3 0
-1 -4 0
-1 -5 0
-2 -3 0
-2 -4 0
-2 -5 0
-3 -4 0
-3 -5 0
-4 -5 0
-6 -8 0
-6 -9 0
-6 -10 0
-8 -9 0
-8 -10 0
-9 -10 0
-11 -12 0
-11 -13 0
-11 -15 0
-12 -13 0
-12 -15 0
-13 -15 0
-16 -17 0
-16 -18 0
-16 -19 0
-16 -20 0
-17 -18 0
-17 -19 0
-17 -20 0
-18 -19 0
-18 -20 0
-19 -20 0
-21 -23 0
-21 -24 0
-23 -24 0
-26 -28 0
-26 -29 0
-28 -29 0
-31 -33 0
-31 -34 0
-31 -35 0
-33 -34 0
-33 -35 0
-34 -35 0
-36 -37 0
-36 -38 0
-36 -39 0
-36 -40 0
-37 -38 0
-37 -39 0
-37 -40 0
-38 -39 0
-38 -40 0
-39 -40 0
-41 -42 0
-41 -43 0
-41 -44 0
-41 -45 0
-42 -43 0
-42 -44 0
-42 -45 0
-43 -44 0
-43 -45 0
-44 -45 0
-46 -48 0
-51 -53 0
-51 -55 0
-53 -55 0
-56 -58 0
-56 -59 0
-56 -60 0
-58 -59 0
-58 -60 0
-59 -60 0
-61 -62 0
-61 -63 0
-61 -64 0
-62 -63 0
-62 -64 0
-63 -64 0
-66 -67 0
-66 -68 0
-66 -69 0
-66 -70 0
-67 -68 0
-67 -69 0
-67 -70 0
-68 -69 0
-68 -70 0
-69 -70 0
-71 -72 0
-71 -74 0
-71 -75 0
-72 -74 0
-72 -75 0
-74 -75 0
-76 -77 0
-76 -78 0
-76 -79 0
-76 -80 0
-77 -78 0
-77 -79 0
-77 -80 0
-78 -79 0
-78 -80 0
-79 -80 0
-81 -83 0
-81 -84 0
-81 -85 0
-83 -84 0
-83 -85 0
-84 -85 0
-87 -88 0
-87 -89 0
-87 -90 0
-88 -89 0
-88 -90 0
-89 -90 0
-91 -92 0
-91 -95 0
-92 -95 0
-96 -97 0
-96 -98 0
-96 -100 0
-97 -98 0
-97 -100 0
-98 -100 0
-101 -103 0
-101 -104 0
-101 -105 0
-103 -104 0
-103 -105 0
-104 -105 0
-106 -107 0
-106 -108 0
-106 -109 0
-106 -110 0
-107 -108 0
-107 -109 0
-107 -110 0
-108 -109 0
-108 -110 0
-109 -110 0
-111 -112 0
-111 -113 0
-111 -114 0
-111 -115 0
-112 -113 0
-112 -114 0
-112 -115 0
-113 -114 0
-113 -115 0
-114 -115 0
-117 -119 0
-117 -120 0
-119 -120 0
-121 -122 0
-121 -123 0
-121 -125 0
-122 -123 0
-122 -125 0
-123 -125 0
-126 -127 0
-126 -128 0
-126 -129 0
-126 -130 0
-127 -128 0
-127 -129 0
-127 -130 0
-128 -129 0
-128 -130 0
-129 -130 0
-131 -132 0
-131 -133 0
-131 -134 0
-131 -135 0
-132 -133 0
-132 -134 0
-132 -135 0
-133 -134 0
-133 -135 0
-134 -135 0
-137 -138 0
-137 -139 0
-137 -140 0
-138 -139 0
-138 -140 0
-139 -140 0
-141 -142 0
-141 -143 0
-141 -145 0
-142 -143 0
-142 -145 0
-143 -145 0
-146 -147 0
-146 -148 0
-146 -149 0
-147 -148 0
-147 -149 0
-148 -149 0
-151 -152 0
-151 -154 0
-151 -155 0
-152 -154 0
-152 -155 0
-154 -155 0
-157 -159 0
-157 -160 0
-159 -160 0
-161 -162 0
-161 -163 0
-161 -164 0
-161 -165 0
-162 -163 0
-162 -164 0
-162 -165 0
-163 -164 0
-163 -165 0
-164 -165 0
-166 -168 0
-166 -169 0
-166 -170 0
-168 -169 0
-168 -170 0
-169 -170 0
-171 -172 0
-171 -173 0
-171 -174 0
-171 -175 0
-172 -173 0
-172 -174 0
-172 -175 0
-173 -174 0
-173 -175 0
-174 -175 0
